src/RACER/swarm_exploration/utils/lkh_mtsp_solver/resource/amtsp2_4.atsp
NAME : amtsp
TYPE : ATSP
DIMENSION : 5
EDGE_WEIGHT_TYPE : EXPLICIT
EDGE_WEIGHT_FORMAT : FULL_MATRIX
EDGE_WEIGHT_SECTION
100000 -100000 100000 100000 100000 
100000 100000 -168 -157 50 
0 0 100000 -353 -176 
0 0 -353 100000 -259 
0 0 -176 -259 100000 
