src/RACER/swarm_exploration/utils/lkh_mtsp_solver/resource/amtsp2_4.tour
NAME : amtsp.-100780.tour
COMMENT : Length = -100780
COMMENT : Found by LKH [Keld Helsgaun] Wed Mar 29 15:21:52 2023
TYPE : TOUR
DIMENSION : 5
TOUR_SECTION
1
2
3
4
5
-1
EOF
